UBC_100_5.txt

VEHICLE     CAPACITY  LOCATIONS  CUSTOMER  OPTIONS  PRIORITIES  NUMTYPS
10		400		105		100		200		3		4

CUSTOMER  DEMAND
0	 11
1	 18
2	 18
3	 18
4	 15
5	 20
6	 20
7	 18
8	 20
9	 10
10	 10
11	 14
12	 19
13	 10
14	 16
15	 17
16	 14
17	 15
18	 12
19	 17
20	 12
21	 14
22	 17
23	 15
24	 16
25	 13
26	 17
27	 20
28	 14
29	 16
30	 13
31	 17
32	 13
33	 17
34	 11
35	 12
36	 19
37	 13
38	 12
39	 12
40	 19
41	 16
42	 19
43	 19
44	 18
45	 20
46	 14
47	 16
48	 10
49	 10
50	 17
51	 13
52	 13
53	 19
54	 18
55	 14
56	 15
57	 10
58	 17
59	 13
60	 10
61	 16
62	 16
63	 17
64	 11
65	 14
66	 16
67	 10
68	 13
69	 16
70	 12
71	 18
72	 14
73	 12
74	 20
75	 20
76	 10
77	 19
78	 17
79	 12
80	 19
81	 16
82	 13
83	 11
84	 15
85	 18
86	 11
87	 16
88	 15
89	 17
90	 16
91	 18
92	 20
93	 16
94	 20
95	 11
96	 12
97	 16
98	 19
99	 18

LOCATION  XCOORD  YCOORD  CAP  READY  DUE  TYP  SERVICETIME
0		29		45		-1		0		720	 0		0
1		46		45		-1		34		154		 2		6
2		49		14		-1		0		360		 2		6
3		49		13		-1		264		504		 2		6
4		49		33		-1		0		360		 2		6
5		31		50		-1		597		717		 2		6
6		10		47		-1		133		253		 2		6
7		38		35		-1		246		486		 2		6
8		4		43		-1		385		625		 2		6
9		26		38		-1		477		717		 2		6
10		2		18		-1		360		720		 2		6
11		10		9		-1		213		333		 2		6
12		28		26		-1		515		635		 2		6
13		22		42		-1		0		360		 2		6
14		16		36		-1		360		720		 2		6
15		1		43		-1		14		134		 2		6
16		9		49		-1		27		147		 2		6
17		31		42		-1		191		311		 2		6
18		6		49		-1		112		232		 2		6
19		48		33		-1		38		158		 2		6
20		23		34		-1		360		720		 2		6
21		19		8		-1		516		636		 2		6
22		32		34		-1		360		720		 2		6
23		45		37		-1		0		360		 2		6
24		50		17		-1		398		638		 2		6
25		2		2		-1		239		479		 2		6
26		28		50		-1		204		444		 2		6
27		44		1		-1		0		360		 2		6
28		25		36		-1		154		274		 2		6
29		33		8		-1		428		548		 2		6
30		26		6		-1		411		531		 2		6
31		7		8		-1		174		294		 2		6
32		17		32		-1		55		295		 2		6
33		28		7		-1		360		720		 2		6
34		30		8		-1		360		720		 2		6
35		49		41		-1		81		201		 2		6
36		35		44		-1		0		360		 2		6
37		27		46		-1		360		720		 2		6
38		21		37		-1		507		627		 2		6
39		33		36		-1		171		291		 2		6
40		24		45		-1		360		720		 2		6
41		45		20		-1		360		720		 2		6
42		1		31		-1		323		563		 2		6
43		34		32		-1		360		720		 2		6
44		33		37		-1		177		297		 2		6
45		48		33		-1		218		458		 2		6
46		2		4		-1		360		720		 2		6
47		34		10		-1		0		360		 2		6
48		22		12		-1		0		360		 2		6
49		6		47		-1		0		360		 2		6
50		40		47		-1		360		720		 2		6
51		48		17		-1		200		320		 2		6
52		30		38		-1		0		360		 2		6
53		16		5		-1		187		427		 2		6
54		50		3		-1		360		720		 2		6
55		16		12		-1		360		720		 2		6
56		45		31		-1		360		720		 2		6
57		31		33		-1		427		667		 2		6
58		30		35		-1		360		720		 2		6
59		1		4		-1		198		438		 2		6
60		11		29		-1		389		629		 2		6
61		38		45		-1		138		258		 2		6
62		12		29		-1		196		316		 2		6
63		7		30		-1		470		590		 2		6
64		18		34		-1		360		720		 2		6
65		21		14		-1		363		483		 2		6
66		5		37		-1		413		533		 2		6
67		2		43		-1		14		254		 2		6
68		37		43		-1		0		360		 2		6
69		11		9		-1		413		653		 2		6
70		34		39		-1		50		170		 2		6
71		10		7		-1		0		360		 2		6
72		47		48		-1		568		688		 2		6
73		47		16		-1		105		345		 2		6
74		4		20		-1		360		720		 2		6
75		36		28		-1		360		720		 2		6
76		29		50		-1		0		360		 2		6
77		46		23		-1		360		720		 2		6
78		49		32		-1		62		182		 2		6
79		36		26		-1		360		720		 2		6
80		41		26		-1		68		188		 2		6
81		25		48		-1		419		539		 2		6
82		3		35		-1		360		720		 2		6
83		15		44		-1		559		679		 2		6
84		21		44		-1		0		360		 2		6
85		28		46		-1		590		710		 2		6
86		14		29		-1		360		720		 2		6
87		35		2		-1		105		225		 2		6
88		1		4		-1		568		688		 2		6
89		32		29		-1		100		340		 2		6
90		35		33		-1		0		360		 2		6
91		34		18		-1		16		136		 2		6
92		37		48		-1		212		332		 2		6
93		29		48		-1		103		343		 2		6
94		14		26		-1		360		720		 2		6
95		10		32		-1		360		720		 2		6
96		37		28		-1		368		488		 2		6
97		30		38		-1		19		139		 2		6
98		14		40		-1		423		663		 2		6
99		12		50		-1		506		626		 2		6
100		48		20		-1		542		662		 2		6
101		8		13		16		0		720		 1		4
102		41		16		30		26		506		 1		4
103		30		24		30		171		651		 1		4
104		36		8		18		0		720		 1		4
OPTION  LOCATION  CUSTOMER  PRIO  SERVICETIME   COST
0		101		0		0		2		0
1		102		1		0		2		0
2		102		2		0		2		0
3		102		3		0		2		0
4		104		4		0		2		0
5		102		5		0		2		0
6		104		6		0		2		0
7		102		7		0		2		0
8		104		8		0		2		0
9		102		9		0		2		0
10		101		10		0		2		0
11		102		11		0		2		0
12		101		12		0		2		0
13		103		13		0		2		0
14		104		14		0		2		0
15		101		15		0		2		0
16		104		16		0		2		0
17		102		17		0		2		0
18		102		18		0		2		0
19		104		19		0		2		0
20		1		20		0		5		0
21		2		21		0		5		0
22		3		22		0		5		0
23		4		23		0		5		0
24		5		24		0		5		0
25		6		25		0		5		0
26		7		26		0		5		0
27		8		27		0		5		0
28		9		28		0		5		0
29		10		29		0		5		0
30		11		30		0		5		0
31		12		31		0		5		0
32		13		32		0		5		0
33		14		33		0		5		0
34		15		34		0		5		0
35		16		35		0		5		0
36		17		36		0		5		0
37		18		37		0		5		0
38		19		38		0		5		0
39		20		39		0		5		0
40		21		40		0		5		0
41		104		40		1		2		0
42		22		41		1		5		0
43		104		41		0		2		0
44		23		42		1		5		0
45		102		42		0		2		0
46		24		43		1		5		0
47		102		43		0		2		0
48		25		44		1		5		0
49		103		44		0		2		0
50		26		45		1		5		0
51		104		45		0		2		0
52		27		46		0		5		0
53		102		46		1		2		0
54		28		47		0		5		0
55		103		47		1		2		0
56		29		48		1		5		0
57		102		48		0		2		0
58		30		49		1		5		0
59		101		49		0		2		0
60		31		50		1		5		0
61		102		50		0		2		0
62		32		51		1		5		0
63		102		51		0		2		0
64		33		52		0		5		0
65		103		52		1		2		0
66		34		53		1		5		0
67		104		53		0		2		0
68		35		54		0		5		0
69		103		54		1		2		0
70		36		55		1		5		0
71		104		55		0		2		0
72		37		56		1		5		0
73		102		56		0		2		0
74		38		57		1		5		0
75		101		57		0		2		0
76		39		58		1		5		0
77		101		58		0		2		0
78		40		59		1		5		0
79		102		59		0		2		0
80		41		60		2		5		0
81		101		60		0		2		0
82		103		60		1		2		0
83		42		61		0		5		0
84		103		61		2		2		0
85		102		61		1		2		0
86		43		62		0		5		0
87		103		62		2		2		0
88		102		62		1		2		0
89		44		63		0		5		0
90		102		63		1		2		0
91		101		63		2		2		0
92		45		64		2		5		0
93		101		64		1		2		0
94		102		64		0		2		0
95		46		65		1		5		0
96		102		65		2		2		0
97		104		65		0		2		0
98		47		66		1		5		0
99		102		66		2		2		0
100		104		66		0		2		0
101		48		67		1		5		0
102		103		67		2		2		0
103		104		67		0		2		0
104		49		68		2		5		0
105		102		68		0		2		0
106		101		68		1		2		0
107		50		69		0		5		0
108		101		69		2		2		0
109		104		69		1		2		0
110		51		70		1		5		0
111		103		70		2		2		0
112		102		70		0		2		0
113		52		71		2		5		0
114		102		71		0		2		0
115		103		71		1		2		0
116		53		72		2		5		0
117		104		72		1		2		0
118		102		72		0		2		0
119		54		73		2		5		0
120		101		73		0		2		0
121		103		73		1		2		0
122		55		74		2		5		0
123		104		74		1		2		0
124		103		74		0		2		0
125		56		75		1		5		0
126		101		75		0		2		0
127		102		75		2		2		0
128		57		76		2		5		0
129		102		76		1		2		0
130		104		76		0		2		0
131		58		77		1		5		0
132		104		77		2		2		0
133		101		77		0		2		0
134		59		78		1		5		0
135		102		78		2		2		0
136		103		78		0		2		0
137		60		79		0		5		0
138		101		79		2		2		0
139		103		79		1		2		0
140		61		80		1		5		0
141		62		80		0		5		0
142		101		80		2		2		0
143		63		81		1		5		0
144		64		81		0		5		0
145		103		81		2		2		0
146		65		82		1		5		0
147		66		82		2		5		0
148		104		82		0		2		0
149		67		83		1		5		0
150		68		83		2		5		0
151		102		83		0		2		0
152		69		84		1		5		0
153		70		84		2		5		0
154		102		84		0		2		0
155		71		85		2		5		0
156		72		85		0		5		0
157		103		85		1		2		0
158		73		86		2		5		0
159		74		86		0		5		0
160		101		86		1		2		0
161		75		87		0		5		0
162		76		87		1		5		0
163		102		87		2		2		0
164		77		88		0		5		0
165		78		88		1		5		0
166		102		88		2		2		0
167		79		89		0		5		0
168		80		89		2		5		0
169		104		89		1		2		0
170		81		90		2		5		0
171		82		90		0		5		0
172		101		90		1		2		0
173		83		91		0		5		0
174		84		91		1		5		0
175		102		91		2		2		0
176		85		92		0		5		0
177		86		92		2		5		0
178		101		92		1		2		0
179		87		93		2		5		0
180		88		93		0		5		0
181		103		93		1		2		0
182		89		94		0		5		0
183		90		94		2		5		0
184		102		94		1		2		0
185		91		95		1		5		0
186		92		95		0		5		0
187		101		95		2		2		0
188		93		96		0		5		0
189		94		96		2		5		0
190		102		96		1		2		0
191		95		97		1		5		0
192		96		97		2		5		0
193		104		97		0		2		0
194		97		98		1		5		0
195		98		98		2		5		0
196		103		98		0		2		0
197		99		99		2		5		0
198		100		99		0		5		0
199		102		99		1		2		0
